! HF cc-pVTZ cc-pVTZ/JK RIJK cc-pVTZ/C 

%method
FrozenCore FC_ELECTRONS
end

%loc
LocMet AHFB
OCC true
end

* xyz 0 1
O    -0.000000     0.114682     0.000000
H     0.754066    -0.458726     0.000000
H    -0.754066    -0.458726    -0.000000
*

