%NProcshared=5
%mem=25gb
%Chk=gauss.chk
#n b3lyp/6-31+g** force

Title

1 1
O	1.372927816	2.278442874	 0.028026
H	1.681510161	2.907912951	-0.632280
H	1.822930694	2.550851746	 0.841389
O	0.850079782	-2.362945989	 0.554707
H	1.149772082	-2.973070289	-0.121821
H	1.427846583	-2.463649092	 1.334347
O	0.162346587	-0.029135742	-0.446989
H	0.657652904	0.877352823	-0.305508
H	0.547487913	-0.806234403	 0.098046
O	-2.353505251	0.243130905	-0.280331
H	-2.966305274	-0.309556307	-0.810060
H	-2.812449579	1.098358944	-0.172034
H	-0.849655325	0.042451435	-0.391308

